NAME : portcgen-24-12
COMMENT : portcgen N=24, seed=12
TYPE : TSP
DIMENSION : 24
EDGE_WEIGHT_TYPE : EUC_2D
NODE_COORD_SECTION
1 102716 209770
2 2636 31602
3 -185795 -92219
4 132770 245513
5 -302177 -234411
6 -41589 109300
7 -13829 404812
8 284142 157561
9 159780 216979
10 113865 -10398
11 251735 -16139
12 307363 254513
13 124105 -202622
14 88511 -21927
15 -266782 288722
16 385156 564446
17 -312786 -186641
18 182055 -13705
19 -143539 -326385
20 59789 15211
21 418778 -71589
22 135968 -190503
23 -22579 -9467
24 83178 -1544
